unsat
( _c0
  _c10524
  _c10525
  _c10526
  _c10527
  _c10528
  _c10529
  _c10530
  _c10531
  _c10532
  _c10533
  _c10754
  _c10765
  _c10776
  _c10787
  _c10798
  _c10809
  _c10820
  _c10831
  _c10842
  _c10853
  _c10865
  _c10866
  _c10867
  _c10868
  _c10869
  _c10870
  _c10871
  _c10872
  _c10873
  _c10874
  _c10876
  _c10877
  _c10878
  _c10879
  _c10880
  _c10881
  _c10882
  _c10883
  _c10884
  _c10885
  _c10887
  _c10888
  _c10889
  _c10890
  _c10891
  _c10892
  _c10893
  _c10894
  _c10895
  _c10896
  _c10898
  _c10899
  _c10900
  _c10901
  _c10902
  _c10903
  _c10904
  _c10905
  _c10906
  _c10907
  _c10909
  _c10910
  _c10911
  _c10912
  _c10913
  _c10914
  _c10915
  _c10916
  _c10917
  _c10918
  _c10920
  _c10921
  _c10922
  _c10923
  _c10924
  _c10925
  _c10926
  _c10927
  _c10928
  _c10929
  _c10931
  _c10932
  _c10933
  _c10934
  _c10935
  _c10936
  _c10937
  _c10938
  _c10939
  _c10940
  _c10942
  _c10943
  _c10944
  _c10945
  _c10946
  _c10947
  _c10948
  _c10949
  _c10950
  _c10951
  _c10953
  _c10954
  _c10955
  _c10956
  _c10957
  _c10958
  _c10959
  _c10960
  _c10961
  _c10962
  _c111
  _c112
  _c11200
  _c11201
  _c11202
  _c11203
  _c11204
  _c11205
  _c11206
  _c11207
  _c11208
  _c11209
  _c11210
  _c11211
  _c11212
  _c11214
  _c11215
  _c11217
  _c11218
  _c11220
  _c11221
  _c11224
  _c11225
  _c11226
  _c11227
  _c11228
  _c11229
  _c11230
  _c11234
  _c11235
  _c11236
  _c11237
  _c11238
  _c11239
  _c11244
  _c11245
  _c11246
  _c11247
  _c11248
  _c11254
  _c11255
  _c11256
  _c11264
  _c11265
  _c113
  _c114
  _c115
  _c116
  _c117
  _c118
  _c119
  _c120
  _c12468
  _c12479
  _c13544
  _c13545
  _c13546
  _c13547
  _c13548
  _c13549
  _c13550
  _c13551
  _c13552
  _c13553
  _c14886
  _c14887
  _c14888
  _c14889
  _c14890
  _c14891
  _c14892
  _c14893
  _c14894
  _c14895
  _c14897
  _c14898
  _c14899
  _c14900
  _c14901
  _c14902
  _c14903
  _c14904
  _c14905
  _c14906
  _c14908
  _c14909
  _c14910
  _c14911
  _c14912
  _c14913
  _c14914
  _c14915
  _c14916
  _c14917
  _c14919
  _c14920
  _c14921
  _c14922
  _c14923
  _c14924
  _c14925
  _c14926
  _c14927
  _c14928
  _c14930
  _c14931
  _c14932
  _c14933
  _c14934
  _c14935
  _c14936
  _c14937
  _c14938
  _c14939
  _c14941
  _c14942
  _c14943
  _c14944
  _c14945
  _c14946
  _c14947
  _c14948
  _c14949
  _c14950
  _c14952
  _c14953
  _c14954
  _c14955
  _c14956
  _c14957
  _c14958
  _c14959
  _c14960
  _c14961
  _c14963
  _c14964
  _c14965
  _c14966
  _c14967
  _c14968
  _c14969
  _c14970
  _c14971
  _c14972
  _c14974
  _c14975
  _c14976
  _c14977
  _c14978
  _c14979
  _c14980
  _c14981
  _c14982
  _c14983
  _c15135
  _c15137
  _c15139
  _c15140
  _c15141
  _c15142
  _c15143
  _c15144
  _c15145
  _c15146
  _c15147
  _c15148
  _c15149
  _c15150
  _c15151
  _c15152
  _c15153
  _c15154
  _c15155
  _c15156
  _c15157
  _c15158
  _c15159
  _c15160
  _c15161
  _c15162
  _c15163
  _c15164
  _c15165
  _c15166
  _c15167
  _c15168
  _c15169
  _c15170
  _c15171
  _c15172
  _c15173
  _c15174
  _c15175
  _c15176
  _c15177
  _c15178
  _c15179
  _c15180
  _c15181
  _c15182
  _c1741
  _c1742
  _c1743
  _c1744
  _c1745
  _c1746
  _c1747
  _c1748
  _c1749
  _c1750
  _c1751
  _c1752
  _c1753
  _c1755
  _c1756
  _c1757
  _c1758
  _c1759
  _c1760
  _c1761
  _c1762
  _c1763
  _c1764
  _c1765
  _c1766
  _c1767
  _c1768
  _c1769
  _c1770
  _c1771
  _c1772
  _c1773
  _c1774
  _c1775
  _c1776
  _c1777
  _c1778
  _c1779
  _c1780
  _c1781
  _c1782
  _c1783
  _c1784
  _c1785
  _c1786
  _c1787
  _c1788
  _c1789
  _c1790
  _c1791
  _c1792
  _c1793
  _c1794
  _c1795
  _c1796
  _c1797
  _c1798
  _c1799
  _c1800
  _c1801
  _c1802
  _c1803
  _c1804
  _c1805
  _c1806
  _c1807
  _c1808
  _c1809
  _c1810
  _c1811
  _c1812
  _c1813
  _c1814
  _c1815
  _c1816
  _c1817
  _c1818
  _c1819
  _c1820
  _c1821
  _c1822
  _c1823
  _c1824
  _c1825
  _c1826
  _c1827
  _c1828
  _c1829
  _c1830
  _c1831
  _c1832
  _c1833
  _c1834
  _c1835
  _c1836
  _c1837
  _c1838
  _c1839
  _c1840
  _c1841
  _c1842
  _c1843
  _c1844
  _c1845
  _c1846
  _c1847
  _c1848
  _c1849
  _c1850
  _c1851
  _c1852
  _c1853
  _c1854
  _c1855
  _c1856
  _c1857
  _c1858
  _c1859
  _c1860
  _c1861
  _c1862
  _c1863
  _c1864
  _c1865
  _c1866
  _c1867
  _c1868
  _c1869
  _c1870
  _c1871
  _c1872
  _c1873
  _c1874
  _c1875
  _c1876
  _c1877
  _c1878
  _c1879
  _c1880
  _c1881
  _c1882
  _c1883
  _c1884
  _c1885
  _c1886
  _c1887
  _c1888
  _c1889
  _c1890
  _c1891
  _c1892
  _c1893
  _c1894
  _c1895
  _c1896
  _c1897
  _c1899
  _c1900
  _c1901
  _c1902
  _c1903
  _c1904
  _c1905
  _c1906
  _c1907
  _c1908
  _c1909
  _c1910
  _c1911
  _c1912
  _c1913
  _c1914
  _c1915
  _c1916
  _c1917
  _c1918
  _c1919
  _c1920
  _c1921
  _c1927
  _c1931
  _c1932
  _c1933
  _c1934
  _c1935
  _c1936
  _c1937
  _c1938
  _c1940
  _c1941
  _c1942
  _c1943
  _c1944
  _c1945
  _c1946
  _c1948
  _c1949
  _c1950
  _c1951
  _c1952
  _c1953
  _c1954
  _c1956
  _c1957
  _c1958
  _c1959
  _c1960
  _c1961
  _c1962
  _c1964
  _c1965
  _c1966
  _c1967
  _c1968
  _c1969
  _c1970
  _c1972
  _c1973
  _c1975
  _c1976
  _c1977
  _c1978
  _c1980
  _c1981
  _c1982
  _c1983
  _c1984
  _c1985
  _c1986
  _c1988
  _c1989
  _c1990
  _c1991
  _c1992
  _c1993
  _c1994
  _c1996
  _c1997
  _c1998
  _c1999
  _c2000
  _c2001
  _c2002
  _c2021
  _c2022
  _c2023
  _c2024
  _c2025
  _c2026
  _c2027
  _c2030
  _c2031
  _c2032
  _c2033
  _c2034
  _c2035
  _c2038
  _c2039
  _c2040
  _c2041
  _c2042
  _c2043
  _c2046
  _c2047
  _c2048
  _c2049
  _c2050
  _c2051
  _c2054
  _c2055
  _c2056
  _c2057
  _c2058
  _c2059
  _c2062
  _c2063
  _c2064
  _c2065
  _c2066
  _c2067
  _c2070
  _c2071
  _c2072
  _c2073
  _c2074
  _c2075
  _c2078
  _c2079
  _c2080
  _c2081
  _c2082
  _c2083
  _c2111
  _c2112
  _c2113
  _c2114
  _c2115
  _c2116
  _c2120
  _c2121
  _c2122
  _c2123
  _c2124
  _c2128
  _c2129
  _c2130
  _c2131
  _c2132
  _c2137
  _c2138
  _c2139
  _c2140
  _c2144
  _c2145
  _c2146
  _c2147
  _c2148
  _c2152
  _c2153
  _c2154
  _c2155
  _c2156
  _c2160
  _c2161
  _c2162
  _c2163
  _c2164
  _c2177
  _c2193
  _c2201
  _c2202
  _c2203
  _c2204
  _c2205
  _c2210
  _c2211
  _c2212
  _c2213
  _c2218
  _c2219
  _c2220
  _c2221
  _c2226
  _c2228
  _c2229
  _c2234
  _c2235
  _c2236
  _c2237
  _c2242
  _c2243
  _c2244
  _c2245
  _c2291
  _c2292
  _c2293
  _c2294
  _c2300
  _c2301
  _c2302
  _c2308
  _c2309
  _c2310
  _c2316
  _c2317
  _c2318
  _c2324
  _c2325
  _c2326
  _c2364
  _c2381
  _c2382
  _c2383
  _c2390
  _c2391
  _c2398
  _c2399
  _c2406
  _c2407
  _c2471
  _c2472
  _c2480
  _c2488
  _c2561
  _c3803
  _c3804
  _c3805
  _c3806
  _c3807
  _c3808
  _c3809
  _c3810
  _c3811
  _c3812
  _c3924
  _c3925
  _c3926
  _c3927
  _c3928
  _c3929
  _c3930
  _c3931
  _c3932
  _c3933
  _c3936
  _c3937
  _c3938
  _c3941
  _c3942
  _c3943
  _c3944
  _c3946
  _c3947
  _c3948
  _c3949
  _c3950
  _c3951
  _c3952
  _c3953
  _c3954
  _c3955
  _c3957
  _c3958
  _c3959
  _c3960
  _c3961
  _c3962
  _c3963
  _c3964
  _c3966
  _c3968
  _c3969
  _c3970
  _c3971
  _c3972
  _c3973
  _c3974
  _c3976
  _c3977
  _c3979
  _c3980
  _c3981
  _c3982
  _c3983
  _c3984
  _c3985
  _c3986
  _c3987
  _c3988
  _c3990
  _c3991
  _c3992
  _c3994
  _c3995
  _c3996
  _c3997
  _c3998
  _c3999
  _c4001
  _c4002
  _c4004
  _c4005
  _c4006
  _c4007
  _c4008
  _c4010
  _c4012
  _c4013
  _c4014
  _c4015
  _c4016
  _c4017
  _c4019
  _c4020
  _c4021
  _c5133
  _c6154
  _c6155
  _c6156
  _c6157
  _c6158
  _c6159
  _c6160
  _c6161
  _c6162
  _c6163
  _c6165
  _c6166
  _c6170
  _c6171
  _c6172
  _c6175
  _c6180
  _c6181
  _c6184
  _c6190
  _c6200
  _c6202
  _c6206
  _c6208
  _c6209
  _c6210
  _c6211
  _c6212
  _c6214
  _c6216
  _c6217
  _c6218
  _c6219
  _c6220
  _c6221
  _c6225
  _c6228
  _c6229
  _c6230
  _c6234
  _c6235
  _c6238
  _c6239
  _c6244
  _c6248
  _c6265
  _c6266
  _c6267
  _c6268
  _c6269
  _c6270
  _c6271
  _c6272
  _c6273
  _c6274
  _c6276
  _c6277
  _c6278
  _c6279
  _c6280
  _c6281
  _c6282
  _c6283
  _c6284
  _c6285
  _c6287
  _c6288
  _c6289
  _c6290
  _c6291
  _c6292
  _c6293
  _c6294
  _c6295
  _c6296
  _c6298
  _c6299
  _c6300
  _c6301
  _c6302
  _c6303
  _c6304
  _c6305
  _c6306
  _c6307
  _c6309
  _c6310
  _c6311
  _c6312
  _c6313
  _c6314
  _c6315
  _c6316
  _c6317
  _c6318
  _c6320
  _c6321
  _c6322
  _c6323
  _c6324
  _c6325
  _c6326
  _c6327
  _c6328
  _c6329
  _c6331
  _c6332
  _c6333
  _c6334
  _c6335
  _c6336
  _c6337
  _c6338
  _c6339
  _c6340
  _c6342
  _c6343
  _c6344
  _c6345
  _c6346
  _c6347
  _c6348
  _c6349
  _c6350
  _c6351
  _c6353
  _c6354
  _c6355
  _c6356
  _c6357
  _c6358
  _c6359
  _c6360
  _c6361
  _c6362
  _c6365
  _c6366
  _c6367
  _c6368
  _c6369
  _c6370
  _c6371
  _c6372
  _c6373
  _c6374
  _c6376
  _c6377
  _c6378
  _c6379
  _c6380
  _c6381
  _c6382
  _c6383
  _c6384
  _c6385
  _c6387
  _c6388
  _c6389
  _c6390
  _c6391
  _c6392
  _c6393
  _c6394
  _c6395
  _c6396
  _c6398
  _c6399
  _c6400
  _c6401
  _c6402
  _c6403
  _c6404
  _c6405
  _c6406
  _c6407
  _c6409
  _c6410
  _c6411
  _c6412
  _c6413
  _c6414
  _c6415
  _c6416
  _c6417
  _c6418
  _c6420
  _c6421
  _c6422
  _c6423
  _c6424
  _c6425
  _c6426
  _c6427
  _c6428
  _c6429
  _c6431
  _c6432
  _c6433
  _c6434
  _c6435
  _c6436
  _c6437
  _c6438
  _c6439
  _c6440
  _c6442
  _c6443
  _c6444
  _c6445
  _c6446
  _c6447
  _c6448
  _c6449
  _c6450
  _c6451
  _c6453
  _c6454
  _c6455
  _c6456
  _c6457
  _c6458
  _c6459
  _c6460
  _c6461
  _c6462
  _c6465
  _c6466
  _c6467
  _c6468
  _c6469
  _c6470
  _c6471
  _c6472
  _c6473
  _c6474
  _c6476
  _c6477
  _c6478
  _c6479
  _c6480
  _c6481
  _c6482
  _c6483
  _c6484
  _c6485
  _c6487
  _c6488
  _c6489
  _c6490
  _c6491
  _c6492
  _c6493
  _c6494
  _c6495
  _c6496
  _c6498
  _c6499
  _c6500
  _c6501
  _c6502
  _c6503
  _c6504
  _c6505
  _c6506
  _c6507
  _c6509
  _c6510
  _c6511
  _c6512
  _c6513
  _c6514
  _c6515
  _c6516
  _c6517
  _c6518
  _c6520
  _c6521
  _c6522
  _c6523
  _c6524
  _c6525
  _c6526
  _c6527
  _c6528
  _c6529
  _c6531
  _c6532
  _c6533
  _c6534
  _c6535
  _c6536
  _c6537
  _c6538
  _c6539
  _c6540
  _c6542
  _c6543
  _c6544
  _c6545
  _c6546
  _c6547
  _c6548
  _c6549
  _c6550
  _c6551
  _c6553
  _c6554
  _c6555
  _c6556
  _c6557
  _c6558
  _c6559
  _c6560
  _c6561
  _c6562
  _c6565
  _c6566
  _c6567
  _c6568
  _c6569
  _c6570
  _c6571
  _c6572
  _c6573
  _c6574
  _c6576
  _c6577
  _c6578
  _c6579
  _c6580
  _c6581
  _c6582
  _c6583
  _c6584
  _c6585
  _c6587
  _c6588
  _c6589
  _c6590
  _c6591
  _c6592
  _c6593
  _c6594
  _c6595
  _c6596
  _c6598
  _c6599
  _c6600
  _c6601
  _c6602
  _c6603
  _c6604
  _c6605
  _c6606
  _c6607
  _c6609
  _c6610
  _c6611
  _c6612
  _c6613
  _c6614
  _c6615
  _c6616
  _c6617
  _c6618
  _c6620
  _c6621
  _c6622
  _c6623
  _c6624
  _c6625
  _c6626
  _c6627
  _c6628
  _c6629
  _c6631
  _c6632
  _c6633
  _c6634
  _c6635
  _c6636
  _c6637
  _c6638
  _c6639
  _c6640
  _c6642
  _c6643
  _c6644
  _c6645
  _c6646
  _c6647
  _c6648
  _c6649
  _c6650
  _c6651
  _c6653
  _c6654
  _c6655
  _c6656
  _c6657
  _c6658
  _c6659
  _c6660
  _c6661
  _c6662
  _c6665
  _c6666
  _c6667
  _c6668
  _c6669
  _c6670
  _c6671
  _c6672
  _c6673
  _c6674
  _c6676
  _c6677
  _c6678
  _c6679
  _c6680
  _c6681
  _c6682
  _c6683
  _c6684
  _c6685
  _c6687
  _c6688
  _c6689
  _c6690
  _c6691
  _c6692
  _c6693
  _c6694
  _c6695
  _c6696
  _c6698
  _c6699
  _c6700
  _c6701
  _c6702
  _c6703
  _c6704
  _c6705
  _c6706
  _c6707
  _c6709
  _c6710
  _c6711
  _c6712
  _c6713
  _c6714
  _c6715
  _c6716
  _c6717
  _c6718
  _c6720
  _c6721
  _c6722
  _c6723
  _c6724
  _c6725
  _c6726
  _c6727
  _c6728
  _c6729
  _c6731
  _c6732
  _c6733
  _c6734
  _c6735
  _c6736
  _c6737
  _c6738
  _c6739
  _c6740
  _c6742
  _c6743
  _c6744
  _c6745
  _c6746
  _c6747
  _c6748
  _c6749
  _c6750
  _c6751
  _c6753
  _c6754
  _c6755
  _c6756
  _c6757
  _c6758
  _c6759
  _c6760
  _c6761
  _c6762
  _c6765
  _c6766
  _c6767
  _c6768
  _c6769
  _c6770
  _c6771
  _c6772
  _c6773
  _c6774
  _c6776
  _c6777
  _c6778
  _c6779
  _c6780
  _c6781
  _c6782
  _c6783
  _c6784
  _c6785
  _c6787
  _c6788
  _c6789
  _c6790
  _c6791
  _c6792
  _c6793
  _c6794
  _c6795
  _c6796
  _c6798
  _c6799
  _c6800
  _c6801
  _c6802
  _c6803
  _c6804
  _c6805
  _c6806
  _c6807
  _c6809
  _c6810
  _c6811
  _c6812
  _c6813
  _c6814
  _c6815
  _c6816
  _c6817
  _c6818
  _c6819
  _c6820
  _c6821
  _c6822
  _c6823
  _c6824
  _c6825
  _c6826
  _c6827
  _c6828
  _c6829
  _c6831
  _c6832
  _c6833
  _c6834
  _c6835
  _c6836
  _c6837
  _c6838
  _c6839
  _c6840
  _c6842
  _c6843
  _c6844
  _c6845
  _c6846
  _c6847
  _c6848
  _c6849
  _c6850
  _c6851
  _c6853
  _c6854
  _c6855
  _c6856
  _c6857
  _c6858
  _c6859
  _c6860
  _c6861
  _c6862
  _c6865
  _c6866
  _c6867
  _c6868
  _c6869
  _c6870
  _c6871
  _c6872
  _c6873
  _c6874
  _c6876
  _c6877
  _c6878
  _c6879
  _c6880
  _c6881
  _c6882
  _c6883
  _c6884
  _c6885
  _c6887
  _c6888
  _c6889
  _c6890
  _c6891
  _c6892
  _c6893
  _c6894
  _c6895
  _c6896
  _c6898
  _c6899
  _c6900
  _c6901
  _c6902
  _c6903
  _c6904
  _c6905
  _c6906
  _c6907
  _c6909
  _c6910
  _c6911
  _c6912
  _c6913
  _c6914
  _c6915
  _c6916
  _c6917
  _c6918
  _c6920
  _c6921
  _c6922
  _c6923
  _c6924
  _c6925
  _c6926
  _c6927
  _c6928
  _c6929
  _c6931
  _c6932
  _c6933
  _c6934
  _c6935
  _c6936
  _c6937
  _c6938
  _c6939
  _c6940
  _c6942
  _c6943
  _c6944
  _c6945
  _c6946
  _c6947
  _c6948
  _c6949
  _c6950
  _c6951
  _c6953
  _c6954
  _c6955
  _c6956
  _c6957
  _c6958
  _c6959
  _c6960
  _c6961
  _c6962
  _c6965
  _c6966
  _c6967
  _c6968
  _c6969
  _c6970
  _c6971
  _c6972
  _c6973
  _c6974
  _c6976
  _c6977
  _c6978
  _c6979
  _c6980
  _c6981
  _c6982
  _c6983
  _c6984
  _c6985
  _c6987
  _c6988
  _c6989
  _c6990
  _c6991
  _c6992
  _c6993
  _c6994
  _c6995
  _c6996
  _c6998
  _c6999
  _c7000
  _c7001
  _c7002
  _c7003
  _c7004
  _c7005
  _c7006
  _c7007
  _c7009
  _c7010
  _c7011
  _c7012
  _c7013
  _c7014
  _c7015
  _c7016
  _c7017
  _c7018
  _c7020
  _c7021
  _c7022
  _c7023
  _c7024
  _c7025
  _c7026
  _c7027
  _c7028
  _c7029
  _c7031
  _c7032
  _c7033
  _c7034
  _c7035
  _c7036
  _c7037
  _c7038
  _c7039
  _c7040
  _c7042
  _c7043
  _c7044
  _c7045
  _c7046
  _c7047
  _c7048
  _c7049
  _c7050
  _c7051
  _c7053
  _c7054
  _c7055
  _c7056
  _c7057
  _c7058
  _c7059
  _c7060
  _c7061
  _c7062
  _c7065
  _c7066
  _c7067
  _c7068
  _c7069
  _c7070
  _c7071
  _c7072
  _c7073
  _c7074
  _c7076
  _c7077
  _c7078
  _c7079
  _c7080
  _c7081
  _c7082
  _c7083
  _c7084
  _c7085
  _c7087
  _c7088
  _c7089
  _c7090
  _c7091
  _c7092
  _c7093
  _c7094
  _c7095
  _c7096
  _c7098
  _c7099
  _c7100
  _c7101
  _c7102
  _c7103
  _c7104
  _c7105
  _c7106
  _c7107
  _c7109
  _c7110
  _c7111
  _c7112
  _c7113
  _c7114
  _c7115
  _c7116
  _c7117
  _c7118
  _c7120
  _c7121
  _c7122
  _c7123
  _c7124
  _c7125
  _c7126
  _c7127
  _c7128
  _c7129
  _c7131
  _c7132
  _c7133
  _c7134
  _c7135
  _c7136
  _c7137
  _c7138
  _c7139
  _c7140
  _c7142
  _c7143
  _c7144
  _c7145
  _c7146
  _c7147
  _c7148
  _c7149
  _c7150
  _c7151
  _c7153
  _c7154
  _c7155
  _c7156
  _c7157
  _c7158
  _c7159
  _c7160
  _c7161
  _c7162
  _c7165
  _c7166
  _c7167
  _c7168
  _c7169
  _c7170
  _c7171
  _c7172
  _c7173
  _c7174
  _c7176
  _c7177
  _c7178
  _c7179
  _c7180
  _c7181
  _c7182
  _c7183
  _c7184
  _c7185
  _c7187
  _c7188
  _c7189
  _c7190
  _c7191
  _c7192
  _c7193
  _c7194
  _c7195
  _c7196
  _c7198
  _c7199
  _c7200
  _c7201
  _c7202
  _c7203
  _c7204
  _c7205
  _c7206
  _c7207
  _c7209
  _c7210
  _c7211
  _c7212
  _c7213
  _c7214
  _c7215
  _c7216
  _c7217
  _c7218
  _c7220
  _c7221
  _c7222
  _c7223
  _c7224
  _c7225
  _c7226
  _c7227
  _c7228
  _c7229
  _c7231
  _c7232
  _c7233
  _c7234
  _c7235
  _c7236
  _c7237
  _c7238
  _c7239
  _c7240
  _c7242
  _c7243
  _c7244
  _c7245
  _c7246
  _c7247
  _c7248
  _c7249
  _c7250
  _c7251
  _c7253
  _c7254
  _c7255
  _c7256
  _c7257
  _c7258
  _c7259
  _c7260
  _c7261
  _c7262
  _c7263
  _c9375
  _c9376
  _c9377
  _c9378
  _c9380
  _c9381
  _c9382
  _c9383
  _c9384
  _c9386
  _c9388
  _c9389
  _c9390
  _c9391
  _c9392
  _c9393
  _c9394
  _c9395
  _c9397
  _c9398
  _c9402
  _c9405
  _c9406
  _c9410
  _c9411
  _c9412
  _c9413
  _c9414
  _c9415
  _c9416
  _c9417
  _c9419
  _c9421
  _c9423
  _c9424
  _c9425
  _c9426
  _c9427
  _c9428
  _c9432
  _c9434
  _c9435
  _c9436
  _c9437
  _c9438
  _c9439
  _c9442
  _c9444
  _c9445
  _c9446
  _c9447
  _c9448
  _c9449
  _c9450
  _c9452
  _c9454
  _c9455
  _c9456
  _c9457
  _c9458
  _c9459
  _c9460
  _c9461
  _c9464
  _c9465
  _c9466
  _c9467
  _c9469
  _c9470
  _c9471
  _c9472 )
